1739, 0, 0, 38, 3
1740, 0, 1, 75, 0
1741, 0, 2, 36, 1
1742, 0, 3, 45, 2
1743, 1, 0, 99, 3
1744, 1, 1, 52, 1
1745, 1, 2, 68, 2
1746, 1, 3, 57, 0
1747, 2, 0, 57, 2
1748, 2, 1, 51, 0
1749, 2, 2, 87, 1
1750, 2, 3, 90, 3
1751, 3, 0, 43, 1
1752, 3, 1, 49, 3
1753, 3, 2, 66, 2
1754, 3, 3, 73, 0
